benchmarks_CP/INST_36x36/45/inst36x36_45_3.dzn
S=6;
start=[|
-1,	-1,	-1,	9,	32,	11,	2,	23,	-1,	-1,	-1,	1,	-1,	-1,	-1,	-1,	35,	-1,	-1,	-1,	-1,	-1,	-1,	-1,	7,	-1,	31,	-1,	-1,	-1,	12,	22,	29,	27,	-1,	-1|
-1,	-1,	-1,	-1,	-1,	-1,	-1,	24,	31,	-1,	35,	16,	-1,	-1,	3,	-1,	34,	-1,	32,	-1,	-1,	-1,	-1,	33,	-1,	-1,	11,	28,	12,	-1,	-1,	-1,	25,	13,	19,	-1|
-1,	33,	-1,	19,	-1,	-1,	11,	8,	5,	-1,	9,	22,	-1,	-1,	-1,	18,	4,	-1,	-1,	-1,	-1,	14,	12,	-1,	-1,	-1,	-1,	-1,	-1,	25,	3,	-1,	17,	-1,	28,	-1|
22,	-1,	-1,	28,	-1,	-1,	14,	-1,	-1,	4,	-1,	34,	12,	36,	26,	-1,	-1,	-1,	-1,	-1,	-1,	-1,	-1,	-1,	-1,	24,	33,	3,	-1,	-1,	-1,	-1,	1,	32,	10,	5|
-1,	-1,	12,	-1,	-1,	13,	15,	28,	19,	-1,	-1,	36,	-1,	1,	6,	-1,	-1,	16,	17,	3,	-1,	-1,	35,	-1,	32,	-1,	5,	29,	-1,	10,	30,	-1,	4,	31,	-1,	-1|
25,	7,	-1,	-1,	-1,	-1,	20,	-1,	18,	3,	-1,	-1,	-1,	13,	-1,	28,	-1,	27,	26,	-1,	10,	-1,	-1,	-1,	4,	35,	23,	-1,	9,	-1,	-1,	11,	-1,	16,	-1,	8|
-1,	-1,	34,	8,	-1,	-1,	23,	-1,	-1,	19,	-1,	-1,	15,	27,	-1,	2,	-1,	-1,	-1,	9,	24,	26,	30,	12,	3,	21,	-1,	17,	10,	33,	-1,	-1,	11,	36,	5,	22|
12,	-1,	-1,	13,	19,	15,	7,	22,	1,	-1,	24,	-1,	25,	21,	20,	-1,	30,	8,	-1,	-1,	-1,	-1,	-1,	31,	-1,	-1,	-1,	14,	-1,	-1,	9,	3,	35,	-1,	32,	27|
-1,	-1,	-1,	-1,	7,	-1,	35,	9,	-1,	-1,	-1,	15,	22,	11,	24,	-1,	-1,	28,	8,	-1,	-1,	5,	-1,	-1,	20,	-1,	-1,	36,	-1,	12,	-1,	10,	-1,	-1,	34,	30|
-1,	-1,	-1,	-1,	-1,	14,	-1,	-1,	29,	-1,	-1,	-1,	35,	-1,	-1,	17,	-1,	-1,	-1,	-1,	-1,	-1,	-1,	10,	-1,	-1,	8,	-1,	-1,	5,	4,	-1,	-1,	7,	23,	-1|
-1,	5,	-1,	25,	20,	-1,	30,	14,	34,	12,	-1,	26,	-1,	-1,	33,	-1,	-1,	-1,	6,	-1,	-1,	-1,	-1,	-1,	11,	-1,	-1,	35,	-1,	22,	18,	1,	2,	21,	8,	-1|
31,	18,	-1,	-1,	9,	21,	5,	-1,	-1,	-1,	-1,	3,	-1,	-1,	34,	-1,	10,	-1,	14,	-1,	2,	-1,	-1,	35,	28,	-1,	-1,	-1,	30,	-1,	-1,	-1,	-1,	12,	-1,	33|
-1,	24,	31,	-1,	-1,	3,	-1,	-1,	-1,	14,	15,	-1,	-1,	-1,	-1,	-1,	25,	10,	21,	-1,	18,	35,	-1,	8,	-1,	22,	34,	2,	-1,	-1,	-1,	28,	-1,	30,	-1,	-1|
-1,	4,	5,	14,	15,	20,	25,	-1,	28,	-1,	36,	-1,	-1,	35,	27,	34,	-1,	-1,	-1,	-1,	9,	-1,	-1,	-1,	-1,	30,	29,	-1,	-1,	-1,	17,	8,	-1,	23,	33,	-1|
-1,	-1,	18,	23,	-1,	-1,	4,	-1,	-1,	24,	-1,	8,	32,	3,	-1,	-1,	-1,	-1,	-1,	-1,	-1,	-1,	-1,	-1,	9,	36,	-1,	27,	33,	-1,	-1,	31,	-1,	-1,	-1,	-1|
35,	-1,	22,	32,	28,	12,	-1,	-1,	30,	-1,	-1,	-1,	33,	-1,	-1,	16,	-1,	-1,	-1,	-1,	36,	-1,	-1,	17,	24,	-1,	-1,	-1,	31,	8,	-1,	-1,	18,	11,	27,	-1|
-1,	-1,	-1,	-1,	34,	2,	-1,	-1,	-1,	-1,	-1,	-1,	36,	-1,	1,	11,	29,	-1,	5,	-1,	-1,	-1,	-1,	26,	-1,	-1,	-1,	-1,	32,	28,	13,	7,	-1,	-1,	-1,	-1|
-1,	36,	6,	11,	17,	-1,	-1,	-1,	27,	34,	-1,	29,	-1,	-1,	-1,	-1,	-1,	26,	-1,	-1,	-1,	-1,	28,	-1,	15,	20,	7,	23,	-1,	-1,	-1,	-1,	9,	-1,	25,	-1|
9,	-1,	-1,	-1,	23,	-1,	-1,	-1,	-1,	-1,	8,	14,	-1,	17,	22,	-1,	2,	-1,	10,	21,	-1,	-1,	-1,	-1,	6,	-1,	-1,	18,	-1,	26,	34,	24,	5,	29,	-1,	-1|
-1,	-1,	8,	-1,	-1,	-1,	-1,	-1,	15,	7,	-1,	-1,	6,	12,	30,	33,	28,	36,	9,	26,	-1,	34,	-1,	-1,	-1,	-1,	-1,	32,	23,	1,	-1,	-1,	27,	-1,	21,	18|
19,	31,	26,	6,	18,	32,	17,	-1,	24,	-1,	-1,	-1,	-1,	-1,	-1,	-1,	27,	-1,	-1,	-1,	-1,	13,	29,	23,	-1,	11,	3,	-1,	34,	-1,	33,	-1,	-1,	15,	-1,	10|
-1,	13,	-1,	30,	5,	-1,	-1,	12,	16,	6,	-1,	10,	-1,	23,	-1,	-1,	15,	1,	3,	-1,	-1,	-1,	-1,	22,	19,	29,	17,	31,	25,	-1,	-1,	32,	-1,	-1,	-1,	14|
-1,	-1,	15,	-1,	27,	-1,	-1,	-1,	36,	-1,	34,	5,	-1,	-1,	29,	-1,	-1,	3,	31,	-1,	-1,	6,	2,	-1,	-1,	9,	12,	-1,	7,	24,	-1,	13,	-1,	8,	35,	20|
-1,	-1,	-1,	-1,	-1,	-1,	-1,	30,	-1,	29,	-1,	-1,	-1,	-1,	-1,	-1,	24,	-1,	15,	27,	20,	33,	7,	32,	14,	-1,	35,	-1,	-1,	13,	1,	-1,	-1,	19,	6,	-1|
4,	-1,	-1,	34,	1,	10,	-1,	26,	2,	22,	-1,	31,	-1,	24,	19,	36,	-1,	12,	-1,	5,	-1,	3,	21,	-1,	33,	32,	-1,	-1,	-1,	9,	25,	-1,	-1,	-1,	-1,	15|
-1,	-1,	21,	-1,	-1,	9,	34,	19,	-1,	-1,	11,	-1,	-1,	-1,	23,	1,	3,	31,	22,	10,	-1,	36,	25,	-1,	-1,	-1,	13,	-1,	20,	17,	5,	-1,	-1,	24,	-1,	29|
13,	-1,	14,	18,	-1,	-1,	24,	-1,	20,	5,	-1,	32,	17,	6,	-1,	9,	21,	-1,	-1,	-1,	-1,	12,	-1,	30,	29,	-1,	-1,	-1,	-1,	23,	22,	34,	-1,	-1,	31,	-1|
-1,	32,	-1,	22,	-1,	-1,	-1,	-1,	9,	-1,	14,	17,	27,	-1,	11,	-1,	-1,	-1,	-1,	-1,	23,	-1,	24,	-1,	25,	19,	-1,	34,	-1,	-1,	-1,	36,	13,	20,	-1,	6|
-1,	27,	17,	7,	-1,	33,	-1,	18,	-1,	-1,	28,	4,	-1,	-1,	25,	-1,	-1,	-1,	-1,	-1,	-1,	11,	-1,	9,	-1,	-1,	30,	-1,	8,	15,	-1,	-1,	10,	2,	3,	-1|
-1,	-1,	3,	24,	-1,	-1,	-1,	13,	35,	21,	23,	25,	29,	-1,	8,	-1,	26,	-1,	-1,	6,	-1,	32,	20,	-1,	1,	10,	-1,	-1,	-1,	-1,	-1,	33,	-1,	-1,	11,	19|
-1,	1,	-1,	-1,	24,	30,	9,	-1,	11,	-1,	-1,	-1,	-1,	-1,	17,	-1,	-1,	20,	-1,	-1,	13,	-1,	16,	36,	31,	33,	-1,	15,	28,	32,	-1,	27,	-1,	-1,	29,	-1|
5,	-1,	-1,	-1,	11,	22,	-1,	16,	-1,	20,	29,	30,	-1,	-1,	-1,	-1,	32,	-1,	4,	-1,	-1,	21,	18,	28,	-1,	23,	-1,	12,	3,	-1,	36,	14,	-1,	33,	-1,	-1|
-1,	21,	-1,	29,	3,	26,	-1,	4,	23,	-1,	2,	-1,	8,	9,	36,	-1,	-1,	34,	-1,	-1,	-1,	30,	33,	-1,	16,	14,	-1,	-1,	17,	-1,	32,	12,	6,	-1,	-1,	28|
-1,	6,	32,	-1,	-1,	18,	-1,	-1,	14,	-1,	-1,	12,	-1,	-1,	-1,	-1,	-1,	4,	-1,	-1,	-1,	-1,	34,	-1,	-1,	13,	-1,	20,	-1,	-1,	8,	2,	16,	1,	-1,	-1|
-1,	-1,	-1,	-1,	-1,	-1,	-1,	34,	21,	-1,	22,	-1,	-1,	29,	-1,	15,	-1,	-1,	-1,	-1,	-1,	-1,	10,	3,	35,	8,	-1,	1,	-1,	-1,	-1,	4,	-1,	-1,	-1,	-1|
-1,	9,	-1,	-1,	-1,	8,	-1,	36,	26,	-1,	-1,	-1,	-1,	-1,	-1,	7,	-1,	-1,	1,	-1,	-1,	29,	31,	-1,	27,	34,	-1,	-1,	-1,	-1,	-1,	-1,	-1,	-1,	18,	-1|];
